p wcnf 98 639 703
1 1 0
1 2 0
1 3 0
1 4 0
1 5 0
1 6 0
1 7 0
1 8 0
1 9 0
1 10 0
1 11 0
1 12 0
1 13 0
1 14 0
1 15 0
1 16 0
1 17 0
1 18 0
1 19 0
1 20 0
1 21 0
1 22 0
1 23 0
1 -24 0
1 25 0
1 -26 0
1 27 0
1 28 0
1 29 0
1 30 0
1 31 0
1 -32 0
1 33 0
1 34 0
1 35 0
1 36 0
1 37 0
1 38 0
1 39 0
1 40 0
1 41 0
1 42 0
1 -43 0
1 44 0
1 45 0
1 46 0
1 47 0
1 48 0
1 49 0
1 50 0
1 -51 0
1 52 0
1 53 0
1 54 0
1 55 0
1 56 0
1 57 0
1 58 0
1 -59 0
1 60 0
1 -61 0
1 62 0
1 63 0
1 64 0
1 65 0
1 66 0
1 -67 0
1 68 0
1 69 0
1 70 0
1 71 0
1 72 0
10 -1 -4 -9 -10 -11 -12 -13 -18 -19 -20 -25 -26 -27 -28 -33 -34 -35 -36 0
10 -37 -40 -45 -46 -47 -48 -49 -54 -55 -56 -61 -62 -63 -64 -69 -70 -71 -72 0
10 -2 -3 -5 -6 -11 -12 -13 -18 -19 -20 -21 -22 -23 -28 -29 -30 -31 -36 0
10 -38 -39 -41 -42 -47 -48 -49 -54 -55 -56 -57 -58 -59 -64 -65 -66 -67 -72 0
10 -2 -4 -5 -6 -7 -12 -13 -18 -19 -20 -21 -22 -23 -28 -29 -30 -31 -32 0
10 -38 -40 -41 -42 -43 -48 -49 -54 -55 -56 -57 -58 -59 -64 -65 -66 -67 -68 0
10 -1 -4 -5 -6 -11 -12 -13 -14 -15 -16 -21 -26 -27 -28 -29 -34 -35 -36 0
10 -37 -40 -41 -42 -47 -48 -49 -50 -51 -52 -57 -62 -63 -64 -65 -70 -71 -72 0
10 -2 -4 -5 -6 -7 -12 -13 -18 -19 -20 -21 -22 -23 -24 -29 -30 -31 -36 0
10 -38 -40 -41 -42 -43 -48 -49 -54 -55 -56 -57 -58 -59 -60 -65 -66 -67 -72 0
10 -1 -4 -5 -6 -7 -12 -17 -18 -19 -20 -21 -22 -23 -28 -29 -30 -31 -36 0
10 -37 -40 -41 -42 -43 -48 -53 -54 -55 -56 -57 -58 -59 -64 -65 -66 -67 -72 0
10 -1 -4 -9 -10 -11 -12 -13 -14 -15 -20 -21 -26 -27 -28 -29 -34 -35 -36 0
10 -37 -40 -45 -46 -47 -48 -49 -50 -51 -56 -57 -62 -63 -64 -65 -70 -71 -72 0
10 -2 -3 -9 -10 -11 -12 -13 -14 -15 -20 -25 -26 -27 -28 -33 -34 -35 -36 0
10 -38 -39 -45 -46 -47 -48 -49 -50 -51 -56 -61 -62 -63 -64 -69 -70 -71 -72 0
10 -2 -4 -5 -10 -11 -12 -13 -14 -15 -20 -25 -26 -27 -28 -33 -34 -35 -36 0
10 -38 -40 -41 -46 -47 -48 -49 -50 -51 -56 -61 -62 -63 -64 -69 -70 -71 -72 0
10 -1 -3 -5 -10 -11 -12 -13 -14 -15 -16 -25 -26 -27 -28 -29 -34 -35 -36 0
10 -37 -39 -41 -46 -47 -48 -49 -50 -51 -52 -61 -62 -63 -64 -65 -70 -71 -72 0
10 -2 -4 -5 -6 -11 -12 -13 -18 -19 -20 -21 -22 -23 -28 -29 -30 -31 -36 0
10 -38 -40 -41 -42 -47 -48 -49 -54 -55 -56 -57 -58 -59 -64 -65 -66 -67 -72 0
10 -2 -3 -9 -10 -11 -12 -17 -18 -19 -20 -25 -26 -27 -28 -29 -34 -35 -36 0
10 -38 -39 -45 -46 -47 -48 -53 -54 -55 -56 -61 -62 -63 -64 -65 -70 -71 -72 0
10 -1 -3 -9 -10 -11 -12 -13 -18 -19 -20 -25 -26 -27 -28 -33 -34 -35 -36 0
10 -37 -39 -45 -46 -47 -48 -49 -54 -55 -56 -61 -62 -63 -64 -69 -70 -71 -72 0
10 -2 -4 -5 -6 -7 -8 -13 -14 -15 -20 -21 -22 -23 -24 -29 -30 -31 -32 0
10 -38 -40 -41 -42 -43 -44 -49 -50 -51 -56 -57 -58 -59 -60 -65 -66 -67 -68 0
10 -2 -3 -5 -6 -11 -12 -17 -18 -19 -20 -21 -22 -23 -28 -29 -30 -31 -32 0
10 -38 -39 -41 -42 -47 -48 -53 -54 -55 -56 -57 -58 -59 -64 -65 -66 -67 -68 0
10 -2 -4 -5 -10 -11 -12 -13 -14 -15 -16 -25 -26 -27 -28 -33 -34 -35 -36 0
10 -38 -40 -41 -46 -47 -48 -49 -50 -51 -52 -61 -62 -63 -64 -69 -70 -71 -72 0
10 -1 -4 -5 -6 -7 -8 -13 -18 -19 -20 -21 -22 -23 -24 -29 -30 -31 -36 0
10 -37 -40 -41 -42 -43 -44 -49 -54 -55 -56 -57 -58 -59 -60 -65 -66 -67 -72 0
10 -2 -4 -5 -6 -7 -12 -13 -14 -15 -20 -21 -22 -23 -28 -29 -30 -31 -32 0
10 -38 -40 -41 -42 -43 -48 -49 -50 -51 -56 -57 -58 -59 -64 -65 -66 -67 -68 0
10 -2 -3 -9 -10 -11 -12 -13 -14 -19 -20 -25 -26 -27 -28 -33 -34 -35 -36 0
10 -38 -39 -45 -46 -47 -48 -49 -50 -55 -56 -61 -62 -63 -64 -69 -70 -71 -72 0
10 -2 -3 -5 -6 -11 -12 -17 -18 -19 -20 -21 -22 -23 -28 -29 -30 -31 -36 0
10 -38 -39 -41 -42 -47 -48 -53 -54 -55 -56 -57 -58 -59 -64 -65 -66 -67 -72 0
10 -2 -4 -5 -10 -11 -12 -13 -14 -15 -20 -25 -26 -27 -28 -29 -34 -35 -36 0
10 -38 -40 -41 -46 -47 -48 -49 -50 -51 -56 -61 -62 -63 -64 -65 -70 -71 -72 0
10 -2 -4 -5 -6 -7 -8 -13 -14 -19 -20 -21 -22 -23 -24 -29 -30 -31 -32 0
10 -38 -40 -41 -42 -43 -44 -49 -50 -55 -56 -57 -58 -59 -60 -65 -66 -67 -68 0
10 -1 -3 -5 -6 -7 -12 -13 -14 -15 -20 -21 -22 -23 -24 -29 -30 -31 -32 0
10 -37 -39 -41 -42 -43 -48 -49 -50 -51 -56 -57 -58 -59 -60 -65 -66 -67 -68 0
10 -2 -4 -9 -10 -11 -12 -13 -14 -15 -20 -25 -26 -27 -28 -33 -34 -35 -36 0
10 -38 -40 -45 -46 -47 -48 -49 -50 -51 -56 -61 -62 -63 -64 -69 -70 -71 -72 0
10 -2 -3 -9 -10 -11 -12 -13 -14 -19 -20 -25 -26 -27 -28 -33 -34 -35 -36 0
10 -38 -39 -45 -46 -47 -48 -49 -50 -55 -56 -61 -62 -63 -64 -69 -70 -71 -72 0
10 73 74 0
10 75 76 0
10 77 78 0
10 79 80 0
10 81 82 0
10 83 84 0
10 85 86 0
10 87 88 0
10 89 90 0
10 91 92 0
10 93 94 0
10 95 96 0
10 97 98 0
703 1 2 0
703 3 4 0
703 5 9 0
703 6 10 0
703 7 11 0
703 8 12 0
703 13 17 0
703 14 18 0
703 15 19 0
703 16 20 0
703 21 25 0
703 22 26 0
703 23 27 0
703 24 28 0
703 29 33 0
703 30 34 0
703 31 35 0
703 32 36 0
703 37 38 0
703 39 40 0
703 41 45 0
703 42 46 0
703 43 47 0
703 44 48 0
703 49 53 0
703 50 54 0
703 51 55 0
703 52 56 0
703 57 61 0
703 58 62 0
703 59 63 0
703 60 64 0
703 65 69 0
703 66 70 0
703 67 71 0
703 68 72 0
703 1 -73 0
703 4 -73 0
703 5 -73 0
703 6 -73 0
703 11 -73 0
703 12 -73 0
703 17 -73 0
703 18 -73 0
703 19 -73 0
703 20 -73 0
703 21 -73 0
703 22 -73 0
703 27 -73 0
703 28 -73 0
703 29 -73 0
703 34 -73 0
703 35 -73 0
703 36 -73 0
703 37 -74 0
703 40 -74 0
703 41 -74 0
703 42 -74 0
703 47 -74 0
703 48 -74 0
703 53 -74 0
703 54 -74 0
703 55 -74 0
703 56 -74 0
703 57 -74 0
703 58 -74 0
703 63 -74 0
703 64 -74 0
703 65 -74 0
703 70 -74 0
703 71 -74 0
703 72 -74 0
703 2 -75 0
703 3 -75 0
703 9 -75 0
703 10 -75 0
703 11 -75 0
703 12 -75 0
703 17 -75 0
703 18 -75 0
703 19 -75 0
703 20 -75 0
703 21 -75 0
703 26 -75 0
703 27 -75 0
703 28 -75 0
703 29 -75 0
703 34 -75 0
703 35 -75 0
703 36 -75 0
703 38 -76 0
703 39 -76 0
703 45 -76 0
703 46 -76 0
703 47 -76 0
703 48 -76 0
703 53 -76 0
703 54 -76 0
703 55 -76 0
703 56 -76 0
703 57 -76 0
703 62 -76 0
703 63 -76 0
703 64 -76 0
703 65 -76 0
703 70 -76 0
703 71 -76 0
703 72 -76 0
703 1 -77 0
703 4 -77 0
703 5 -77 0
703 10 -77 0
703 11 -77 0
703 12 -77 0
703 17 -77 0
703 18 -77 0
703 19 -77 0
703 20 -77 0
703 21 -77 0
703 22 -77 0
703 27 -77 0
703 28 -77 0
703 29 -77 0
703 30 -77 0
703 35 -77 0
703 36 -77 0
703 37 -78 0
703 40 -78 0
703 41 -78 0
703 46 -78 0
703 47 -78 0
703 48 -78 0
703 53 -78 0
703 54 -78 0
703 55 -78 0
703 56 -78 0
703 57 -78 0
703 58 -78 0
703 63 -78 0
703 64 -78 0
703 65 -78 0
703 66 -78 0
703 71 -78 0
703 72 -78 0
703 1 -79 0
703 3 -79 0
703 5 -79 0
703 10 -79 0
703 11 -79 0
703 12 -79 0
703 13 -79 0
703 18 -79 0
703 19 -79 0
703 20 -79 0
703 21 -79 0
703 26 -79 0
703 27 -79 0
703 28 -79 0
703 29 -79 0
703 30 -79 0
703 35 -79 0
703 36 -79 0
703 37 -80 0
703 39 -80 0
703 41 -80 0
703 46 -80 0
703 47 -80 0
703 48 -80 0
703 49 -80 0
703 54 -80 0
703 55 -80 0
703 56 -80 0
703 57 -80 0
703 62 -80 0
703 63 -80 0
703 64 -80 0
703 65 -80 0
703 66 -80 0
703 71 -80 0
703 72 -80 0
703 2 -81 0
703 3 -81 0
703 5 -81 0
703 10 -81 0
703 11 -81 0
703 12 -81 0
703 17 -81 0
703 18 -81 0
703 19 -81 0
703 20 -81 0
703 21 -81 0
703 26 -81 0
703 27 -81 0
703 28 -81 0
703 29 -81 0
703 34 -81 0
703 35 -81 0
703 36 -81 0
703 38 -82 0
703 39 -82 0
703 41 -82 0
703 46 -82 0
703 47 -82 0
703 48 -82 0
703 53 -82 0
703 54 -82 0
703 55 -82 0
703 56 -82 0
703 57 -82 0
703 62 -82 0
703 63 -82 0
703 64 -82 0
703 65 -82 0
703 70 -82 0
703 71 -82 0
703 72 -82 0
703 1 -83 0
703 3 -83 0
703 5 -83 0
703 6 -83 0
703 7 -83 0
703 12 -83 0
703 13 -83 0
703 14 -83 0
703 15 -83 0
703 20 -83 0
703 21 -83 0
703 22 -83 0
703 23 -83 0
703 28 -83 0
703 29 -83 0
703 30 -83 0
703 31 -83 0
703 36 -83 0
703 37 -84 0
703 39 -84 0
703 41 -84 0
703 42 -84 0
703 43 -84 0
703 48 -84 0
703 49 -84 0
703 50 -84 0
703 51 -84 0
703 56 -84 0
703 57 -84 0
703 58 -84 0
703 59 -84 0
703 64 -84 0
703 65 -84 0
703 66 -84 0
703 67 -84 0
703 72 -84 0
703 1 -85 0
703 4 -85 0
703 5 -85 0
703 10 -85 0
703 11 -85 0
703 12 -85 0
703 17 -85 0
703 18 -85 0
703 19 -85 0
703 20 -85 0
703 21 -85 0
703 22 -85 0
703 27 -85 0
703 28 -85 0
703 29 -85 0
703 30 -85 0
703 35 -85 0
703 36 -85 0
703 37 -86 0
703 40 -86 0
703 41 -86 0
703 46 -86 0
703 47 -86 0
703 48 -86 0
703 53 -86 0
703 54 -86 0
703 55 -86 0
703 56 -86 0
703 57 -86 0
703 58 -86 0
703 63 -86 0
703 64 -86 0
703 65 -86 0
703 66 -86 0
703 71 -86 0
703 72 -86 0
703 1 -87 0
703 3 -87 0
703 5 -87 0
703 6 -87 0
703 11 -87 0
703 12 -87 0
703 13 -87 0
703 18 -87 0
703 19 -87 0
703 20 -87 0
703 21 -87 0
703 22 -87 0
703 27 -87 0
703 28 -87 0
703 29 -87 0
703 30 -87 0
703 35 -87 0
703 36 -87 0
703 37 -88 0
703 39 -88 0
703 41 -88 0
703 42 -88 0
703 47 -88 0
703 48 -88 0
703 49 -88 0
703 54 -88 0
703 55 -88 0
703 56 -88 0
703 57 -88 0
703 58 -88 0
703 63 -88 0
703 64 -88 0
703 65 -88 0
703 66 -88 0
703 71 -88 0
703 72 -88 0
703 1 -89 0
703 3 -89 0
703 5 -89 0
703 6 -89 0
703 7 -89 0
703 8 -89 0
703 13 -89 0
703 18 -89 0
703 19 -89 0
703 20 -89 0
703 21 -89 0
703 22 -89 0
703 23 -89 0
703 28 -89 0
703 29 -89 0
703 30 -89 0
703 35 -89 0
703 36 -89 0
703 37 -90 0
703 39 -90 0
703 41 -90 0
703 42 -90 0
703 43 -90 0
703 44 -90 0
703 49 -90 0
703 54 -90 0
703 55 -90 0
703 56 -90 0
703 57 -90 0
703 58 -90 0
703 59 -90 0
703 64 -90 0
703 65 -90 0
703 66 -90 0
703 71 -90 0
703 72 -90 0
703 1 -91 0
703 4 -91 0
703 5 -91 0
703 6 -91 0
703 7 -91 0
703 8 -91 0
703 13 -91 0
703 14 -91 0
703 15 -91 0
703 20 -91 0
703 21 -91 0
703 22 -91 0
703 23 -91 0
703 28 -91 0
703 29 -91 0
703 30 -91 0
703 35 -91 0
703 36 -91 0
703 37 -92 0
703 40 -92 0
703 41 -92 0
703 42 -92 0
703 43 -92 0
703 44 -92 0
703 49 -92 0
703 50 -92 0
703 51 -92 0
703 56 -92 0
703 57 -92 0
703 58 -92 0
703 59 -92 0
703 64 -92 0
703 65 -92 0
703 66 -92 0
703 71 -92 0
703 72 -92 0
703 2 -93 0
703 3 -93 0
703 5 -93 0
703 10 -93 0
703 11 -93 0
703 12 -93 0
703 17 -93 0
703 18 -93 0
703 19 -93 0
703 20 -93 0
703 21 -93 0
703 22 -93 0
703 27 -93 0
703 28 -93 0
703 29 -93 0
703 30 -93 0
703 35 -93 0
703 36 -93 0
703 38 -94 0
703 39 -94 0
703 41 -94 0
703 46 -94 0
703 47 -94 0
703 48 -94 0
703 53 -94 0
703 54 -94 0
703 55 -94 0
703 56 -94 0
703 57 -94 0
703 58 -94 0
703 63 -94 0
703 64 -94 0
703 65 -94 0
703 66 -94 0
703 71 -94 0
703 72 -94 0
703 2 -95 0
703 3 -95 0
703 5 -95 0
703 6 -95 0
703 11 -95 0
703 12 -95 0
703 13 -95 0
703 18 -95 0
703 19 -95 0
703 20 -95 0
703 21 -95 0
703 22 -95 0
703 23 -95 0
703 28 -95 0
703 29 -95 0
703 30 -95 0
703 35 -95 0
703 36 -95 0
703 38 -96 0
703 39 -96 0
703 41 -96 0
703 42 -96 0
703 47 -96 0
703 48 -96 0
703 49 -96 0
703 54 -96 0
703 55 -96 0
703 56 -96 0
703 57 -96 0
703 58 -96 0
703 59 -96 0
703 64 -96 0
703 65 -96 0
703 66 -96 0
703 71 -96 0
703 72 -96 0
703 1 -97 0
703 3 -97 0
703 5 -97 0
703 10 -97 0
703 11 -97 0
703 12 -97 0
703 17 -97 0
703 18 -97 0
703 19 -97 0
703 20 -97 0
703 21 -97 0
703 26 -97 0
703 27 -97 0
703 28 -97 0
703 29 -97 0
703 34 -97 0
703 35 -97 0
703 36 -97 0
703 37 -98 0
703 39 -98 0
703 41 -98 0
703 46 -98 0
703 47 -98 0
703 48 -98 0
703 53 -98 0
703 54 -98 0
703 55 -98 0
703 56 -98 0
703 57 -98 0
703 62 -98 0
703 63 -98 0
703 64 -98 0
703 65 -98 0
703 70 -98 0
703 71 -98 0
703 72 -98 0
